<number of tasks>
50

<cycle time>
1000

<order strength>
0.198


<task times>
1 140
2 225
3 32
4 41
5 94
6 211
7 21
8 54
9 108
10 32
11 69
12 203
13 49
14 145
15 101
16 179
17 36
18 32
19 217
20 81
21 86
22 67
23 99
24 96
25 52
26 175
27 79
28 146
29 76
30 133
31 173
32 119
33 149
34 246
35 171
36 233
37 29
38 282
39 158
40 26
41 181
42 130
43 57
44 131
45 282
46 153
47 177
48 120
49 35
50 35

<precedence relations>
1,9
2,11
2,44
3,14
3,15
6,8
6,10
6,13
7,12
8,17
9,19
9,43
11,16
12,18
13,21
14,20
15,22
15,45
17,25
17,27
18,23
22,24
23,27
23,30
23,31
24,28
24,42
25,26
25,29
25,32
27,38
28,40
29,34
29,36
29,37
31,33
31,35
33,39
35,40
37,42
38,41
38,42
38,43
40,44
40,46
41,45
41,47
41,50
42,46
42,48
43,49

<end>
